(set-info :smt-lib-version 2.6)
(set-logic QF_S)
(set-info :source |
Generated by: Hung-En Wang, Tzung-Lin Tsai, Chun-Han Lin, Fang Yu, and Jie-Hong R. Jiang
Generated on: 2019-02-28
Generator: Stranger
Application: Security analysis of string manipulating web applications
Target solver: CVC4, Norn, Z3-str2
Publication:
Hung-En Wang, Tzung-Lin Tsai, Chun-Han Lin, Fang Yu, Jie-Hong R. Jiang:
String Analysis via Automata Manipulation with Logic Circuit Representation. CAV (1) 2016: 241-260.
|)
(set-info :license "https://creativecommons.org/licenses/by/4.0/")
(set-info :category "industrial")
(set-info :status unknown)

(declare-fun sigmaStar_0 () String)
(declare-fun sigmaStar_1 () String)
(declare-fun sigmaStar_2 () String)
(declare-fun sigmaStar_3 () String)
(declare-fun sigmaStar_4 () String)
(declare-fun sigmaStar_5 () String)
(declare-fun sigmaStar_6 () String)
(declare-fun sigmaStar_7 () String)
(declare-fun sigmaStar_8 () String)
(declare-fun sigmaStar_9 () String)
(declare-fun literal_28 () String)
(declare-fun x_29 () String)
(declare-fun literal_27 () String)
(declare-fun literal_23 () String)
(declare-fun x_30 () String)
(declare-fun literal_33 () String)
(declare-fun x_35 () String)
(declare-fun literal_40 () String)
(declare-fun x_42 () String)
(declare-fun sigmaStar_43 () String)
(declare-fun sigmaStar_50 () String)
(declare-fun sigmaStar_51 () String)
(declare-fun literal_53 () String)
(declare-fun x_52 () String)
(declare-fun epsilon () String)
(declare-fun literal_41 () String)
(declare-fun literal_37 () String)
(declare-fun literal_44 () String)
(declare-fun x_54 () String)
(assert (= literal_28 "\u{53}\u{45}\u{4c}\u{45}\u{43}\u{54}\u{20}\u{75}\u{2e}\u{2a}\u{0d}\u{0a}\u{20}\u{20}\u{20}\u{20}\u{20}\u{20}\u{20}\u{20}\u{20}\u{20}\u{20}\u{20}\u{20}\u{20}\u{20}\u{20}\u{20}\u{20}\u{20}\u{20}\u{20}\u{20}\u{20}\u{20}\u{20}\u{20}\u{20}\u{20}\u{20}\u{20}\u{20}\u{20}\u{20}\u{20}\u{46}\u{52}\u{4f}\u{4d}\u{20}\u{6a}\u{6f}\u{75}\u{72}\u{6e}\u{61}\u{6c}\u{5f}\u{65}\u{6e}\u{74}\u{72}\u{69}\u{65}\u{73}\u{20}\u{6a}\u{2c}\u{0d}\u{0a}\u{20}\u{20}\u{20}\u{20}\u{20}\u{20}\u{20}\u{20}\u{20}\u{20}\u{20}\u{20}\u{20}\u{20}\u{20}\u{20}\u{20}\u{20}\u{20}\u{20}\u{20}\u{20}\u{20}\u{20}\u{20}\u{20}\u{20}\u{20}\u{20}\u{20}\u{20}\u{20}\u{20}\u{20}\u{20}\u{20}\u{20}\u{20}\u{20}\u{75}\u{73}\u{65}\u{72}\u{20}\u{75}\u{2c}\u{20}\u{0d}\u{0a}\u{20}\u{20}\u{20}\u{20}\u{20}\u{20}\u{20}\u{20}\u{20}\u{20}\u{20}\u{20}\u{20}\u{20}\u{20}\u{20}\u{20}\u{20}\u{20}\u{20}\u{20}\u{20}\u{20}\u{20}\u{20}\u{20}\u{20}\u{20}\u{20}\u{20}\u{20}\u{20}\u{20}\u{20}\u{20}\u{20}\u{20}\u{20}\u{20}\u{75}\u{73}\u{65}\u{72}\u{5f}\u{73}\u{74}\u{75}\u{64}\u{65}\u{6e}\u{74}\u{73}\u{20}\u{73}\u{0d}\u{0a}\u{20}\u{20}\u{20}\u{20}\u{20}\u{20}\u{20}\u{20}\u{20}\u{20}\u{20}\u{20}\u{20}\u{20}\u{20}\u{20}\u{20}\u{20}\u{20}\u{20}\u{20}\u{20}\u{20}\u{20}\u{20}\u{20}\u{20}\u{20}\u{20}\u{20}\u{20}\u{20}\u{20}\u{57}\u{48}\u{45}\u{52}\u{45}\u{20}\u{6a}\u{2e}\u{75}\u{73}\u{65}\u{72}\u{69}\u{64}\u{20}\u{3d}\u{20}\u{75}\u{2e}\u{69}\u{64}\u{0d}\u{0a}\u{20}\u{20}\u{20}\u{20}\u{20}\u{20}\u{20}\u{20}\u{20}\u{20}\u{20}\u{20}\u{20}\u{20}\u{20}\u{20}\u{20}\u{20}\u{20}\u{20}\u{20}\u{20}\u{20}\u{20}\u{20}\u{20}\u{20}\u{20}\u{20}\u{20}\u{20}\u{20}\u{20}\u{20}\u{20}\u{41}\u{4e}\u{44}\u{20}\u{73}\u{2e}\u{75}\u{73}\u{65}\u{72}\u{69}\u{64}\u{20}\u{3d}\u{20}\u{75}\u{2e}\u{69}\u{64}\u{20}\u{0d}\u{0a}\u{20}\u{20}\u{20}\u{20}\u{20}\u{20}\u{20}\u{20}\u{20}\u{20}\u{20}\u{20}\u{20}\u{20}\u{20}\u{20}\u{20}\u{20}\u{20}\u{20}\u{20}\u{20}\u{20}\u{20}\u{20}\u{20}\u{20}\u{20}\u{20}\u{20}\u{20}\u{20}\u{20}\u{20}\u{20}\u{41}\u{4e}\u{44}\u{20}"))
(assert (= literal_27 ""))
(assert (= literal_23 "\u{73}\u{2e}\u{63}\u{6f}\u{75}\u{72}\u{73}\u{65}\u{20}\u{3d}\u{20}\u{27}\u{27}\u{20}\u{41}\u{4e}\u{44}"))
(assert (or (= x_29 literal_27) (= x_29 literal_23)))
(assert (= x_30 (str.++ literal_28 x_29)))
(assert (= literal_33 "\u{20}\u{6a}\u{2e}\u{6a}\u{6f}\u{75}\u{72}\u{6e}\u{61}\u{6c}\u{20}\u{3d}\u{20}"))
(assert (= x_35 (str.++ x_30 literal_33)))
(assert (= literal_40 "\u{0d}\u{0a}\u{20}\u{20}\u{20}\u{20}\u{20}\u{20}\u{20}\u{20}\u{20}\u{20}\u{20}\u{20}\u{20}\u{20}\u{20}\u{20}\u{20}\u{20}\u{20}\u{20}\u{20}\u{20}\u{20}\u{20}\u{20}\u{20}\u{20}\u{20}\u{20}\u{20}\u{4f}\u{52}\u{44}\u{45}\u{52}\u{20}\u{42}\u{59}\u{20}\u{6a}\u{2e}\u{6d}\u{6f}\u{64}\u{69}\u{66}\u{69}\u{65}\u{64}\u{20}\u{44}\u{45}\u{53}\u{43}"))
(assert (= x_42 (str.++ x_35 literal_40)))
(assert (= literal_53 "\u{3c}\u{74}\u{64}\u{20}\u{6e}\u{6f}\u{77}\u{72}\u{61}\u{70}\u{3d}\u{22}\u{6e}\u{6f}\u{77}\u{72}\u{61}\u{70}\u{22}\u{20}\u{77}\u{69}\u{64}\u{74}\u{68}\u{3d}\u{22}\u{31}\u{30}\u{30}\u{25}\u{22}\u{3e}"))
(assert (= epsilon ""))
(assert (= literal_41 "\u{53}\u{45}\u{4c}\u{45}\u{43}\u{54}\u{20}\u{75}\u{2e}\u{2a}\u{0d}\u{0a}\u{20}\u{20}\u{20}\u{20}\u{20}\u{20}\u{20}\u{20}\u{20}\u{20}\u{20}\u{20}\u{20}\u{20}\u{20}\u{20}\u{20}\u{20}\u{20}\u{20}\u{20}\u{20}\u{20}\u{20}\u{20}\u{20}\u{20}\u{20}\u{20}\u{20}\u{20}\u{20}\u{20}\u{20}\u{46}\u{52}\u{4f}\u{4d}\u{20}\u{6a}\u{6f}\u{75}\u{72}\u{6e}\u{61}\u{6c}\u{5f}\u{65}\u{6e}\u{74}\u{72}\u{69}\u{65}\u{73}\u{20}\u{6a}\u{2c}\u{0d}\u{0a}\u{20}\u{20}\u{20}\u{20}\u{20}\u{20}\u{20}\u{20}\u{20}\u{20}\u{20}\u{20}\u{20}\u{20}\u{20}\u{20}\u{20}\u{20}\u{20}\u{20}\u{20}\u{20}\u{20}\u{20}\u{20}\u{20}\u{20}\u{20}\u{20}\u{20}\u{20}\u{20}\u{20}\u{20}\u{20}\u{20}\u{20}\u{20}\u{20}\u{75}\u{73}\u{65}\u{72}\u{20}\u{75}\u{2c}\u{20}\u{0d}\u{0a}\u{20}\u{20}\u{20}\u{20}\u{20}\u{20}\u{20}\u{20}\u{20}\u{20}\u{20}\u{20}\u{20}\u{20}\u{20}\u{20}\u{20}\u{20}\u{20}\u{20}\u{20}\u{20}\u{20}\u{20}\u{20}\u{20}\u{20}\u{20}\u{20}\u{20}\u{20}\u{20}\u{20}\u{20}\u{20}\u{20}\u{20}\u{20}\u{20}\u{75}\u{73}\u{65}\u{72}\u{5f}\u{74}\u{65}\u{61}\u{63}\u{68}\u{65}\u{72}\u{73}\u{20}\u{74}\u{0d}\u{0a}\u{20}\u{20}\u{20}\u{20}\u{20}\u{20}\u{20}\u{20}\u{20}\u{20}\u{20}\u{20}\u{20}\u{20}\u{20}\u{20}\u{20}\u{20}\u{20}\u{20}\u{20}\u{20}\u{20}\u{20}\u{20}\u{20}\u{20}\u{20}\u{20}\u{20}\u{20}\u{20}\u{20}\u{57}\u{48}\u{45}\u{52}\u{45}\u{20}\u{6a}\u{2e}\u{75}\u{73}\u{65}\u{72}\u{69}\u{64}\u{20}\u{3d}\u{20}\u{75}\u{2e}\u{69}\u{64}\u{0d}\u{0a}\u{20}\u{20}\u{20}\u{20}\u{20}\u{20}\u{20}\u{20}\u{20}\u{20}\u{20}\u{20}\u{20}\u{20}\u{20}\u{20}\u{20}\u{20}\u{20}\u{20}\u{20}\u{20}\u{20}\u{20}\u{20}\u{20}\u{20}\u{20}\u{20}\u{20}\u{20}\u{20}\u{20}\u{20}\u{20}\u{41}\u{4e}\u{44}\u{20}\u{74}\u{2e}\u{75}\u{73}\u{65}\u{72}\u{69}\u{64}\u{20}\u{3d}\u{20}\u{75}\u{2e}\u{69}\u{64}\u{20}\u{0d}\u{0a}\u{20}\u{20}\u{20}\u{20}\u{20}\u{20}\u{20}\u{20}\u{20}\u{20}\u{20}\u{20}\u{20}\u{20}\u{20}\u{20}\u{20}\u{20}\u{20}\u{20}\u{20}\u{20}\u{20}\u{20}\u{20}\u{20}\u{20}\u{20}\u{20}\u{20}\u{20}\u{20}\u{20}\u{20}\u{20}\u{41}\u{4e}\u{44}\u{20}\u{6a}\u{2e}\u{6a}\u{6f}\u{75}\u{72}\u{6e}\u{61}\u{6c}\u{20}\u{3d}\u{20}\u{0d}\u{0a}\u{20}\u{20}\u{20}\u{20}\u{20}\u{20}\u{20}\u{20}\u{20}\u{20}\u{20}\u{20}\u{20}\u{20}\u{20}\u{20}\u{20}\u{20}\u{20}\u{20}\u{20}\u{20}\u{20}\u{20}\u{20}\u{20}\u{20}\u{20}\u{20}\u{20}\u{20}\u{20}\u{20}\u{20}\u{20}\u{41}\u{4e}\u{44}\u{20}\u{74}\u{2e}\u{63}\u{6f}\u{75}\u{72}\u{73}\u{65}\u{20}\u{3d}\u{20}\u{0d}\u{0a}\u{20}\u{20}\u{20}\u{20}\u{20}\u{20}\u{20}\u{20}\u{20}\u{20}\u{20}\u{20}\u{20}\u{20}\u{20}\u{20}\u{20}\u{20}\u{20}\u{20}\u{20}\u{20}\u{20}\u{20}\u{20}\u{20}\u{20}\u{20}\u{20}\u{20}\u{4f}\u{52}\u{44}\u{45}\u{52}\u{20}\u{42}\u{59}\u{20}\u{6a}\u{2e}\u{6d}\u{6f}\u{64}\u{69}\u{66}\u{69}\u{65}\u{64}\u{20}\u{44}\u{45}\u{53}\u{43}"))
(assert (= literal_37 "\u{63}\u{6f}\u{75}\u{72}\u{73}\u{65}"))
(assert (= literal_44 ""))
(assert (or (= x_52 epsilon) (= x_52 literal_41) (= x_52 x_42) (= x_52 sigmaStar_43) (= x_52 literal_37) (= x_52 literal_44)))
(assert (= x_54 (str.++ literal_53 x_52)))
(assert (str.in_re x_54 (re.++ (re.* re.allchar) (re.++ (str.to_re "\u{5c}\u{3c}\u{53}\u{43}\u{52}\u{49}\u{50}\u{54}") (re.* re.allchar)))))
(check-sat)
(exit)
